c n orig vars 70
p cnf 173 426
71 -1 0
71 -2 0
-71 1 2 0
72 -3 0
72 -4 0
-72 3 4 0
73 -5 0
73 -6 0
-73 5 6 0
74 -7 0
74 -8 0
-74 7 8 0
75 -9 0
75 -10 0
-75 9 10 0
76 -11 0
76 -12 0
-76 11 12 0
77 -13 0
77 -14 0
-77 13 14 0
78 -15 0
78 -16 0
-78 15 16 0
79 -17 0
79 -18 0
-79 17 18 0
80 -19 0
80 -20 0
-80 19 20 0
81 -21 0
81 -22 0
-81 21 22 0
82 -23 0
82 -24 0
-82 23 24 0
83 -25 0
83 -26 0
-83 25 26 0
84 -27 0
84 -28 0
-84 27 28 0
85 -29 0
85 -30 0
-85 29 30 0
86 -31 0
86 -32 0
-86 31 32 0
87 -33 0
87 -34 0
-87 33 34 0
88 -35 0
88 -36 0
-88 35 36 0
89 -37 0
89 -38 0
-89 37 38 0
90 -39 0
90 -40 0
-90 39 40 0
-91 71 0
-91 72 0
-91 73 0
-91 74 0
-91 75 0
-91 76 0
-91 77 0
-91 78 0
-91 79 0
-91 80 0
-91 81 0
-91 82 0
-91 83 0
-91 84 0
-91 85 0
-91 86 0
-91 87 0
-91 88 0
-91 89 0
-91 90 0
91 -71 -72 -73 -74 -75 -76 -77 -78 -79 -80 -81 -82 -83 -84 -85 -86 -87 -88 -89 -90 0
-91 0
92 -41 0
92 -47 0
92 -53 0
92 -59 0
92 -65 0
-92 41 47 53 59 65 0
93 -42 0
93 -48 0
93 -54 0
93 -60 0
93 -66 0
-93 42 48 54 60 66 0
94 -43 0
94 -49 0
94 -55 0
94 -61 0
94 -67 0
-94 43 49 55 61 67 0
95 -44 0
95 -50 0
95 -56 0
95 -62 0
95 -68 0
-95 44 50 56 62 68 0
96 -45 0
96 -51 0
96 -57 0
96 -63 0
96 -69 0
-96 45 51 57 63 69 0
97 -46 0
97 -52 0
97 -58 0
97 -64 0
97 -70 0
-97 46 52 58 64 70 0
98 41 0
98 42 0
-98 -41 -42 0
99 41 0
99 43 0
-99 -41 -43 0
100 41 0
100 44 0
-100 -41 -44 0
101 41 0
101 45 0
-101 -41 -45 0
102 41 0
102 46 0
-102 -41 -46 0
103 42 0
103 43 0
-103 -42 -43 0
104 42 0
104 44 0
-104 -42 -44 0
105 42 0
105 45 0
-105 -42 -45 0
106 42 0
106 46 0
-106 -42 -46 0
107 43 0
107 44 0
-107 -43 -44 0
108 43 0
108 45 0
-108 -43 -45 0
109 43 0
109 46 0
-109 -43 -46 0
110 44 0
110 45 0
-110 -44 -45 0
111 44 0
111 46 0
-111 -44 -46 0
112 45 0
112 46 0
-112 -45 -46 0
113 47 0
113 48 0
-113 -47 -48 0
114 47 0
114 49 0
-114 -47 -49 0
115 47 0
115 50 0
-115 -47 -50 0
116 47 0
116 51 0
-116 -47 -51 0
117 47 0
117 52 0
-117 -47 -52 0
118 48 0
118 49 0
-118 -48 -49 0
119 48 0
119 50 0
-119 -48 -50 0
120 48 0
120 51 0
-120 -48 -51 0
121 48 0
121 52 0
-121 -48 -52 0
122 49 0
122 50 0
-122 -49 -50 0
123 49 0
123 51 0
-123 -49 -51 0
124 49 0
124 52 0
-124 -49 -52 0
125 50 0
125 51 0
-125 -50 -51 0
126 50 0
126 52 0
-126 -50 -52 0
127 51 0
127 52 0
-127 -51 -52 0
128 53 0
128 54 0
-128 -53 -54 0
129 53 0
129 55 0
-129 -53 -55 0
130 53 0
130 56 0
-130 -53 -56 0
131 53 0
131 57 0
-131 -53 -57 0
132 53 0
132 58 0
-132 -53 -58 0
133 54 0
133 55 0
-133 -54 -55 0
134 54 0
134 56 0
-134 -54 -56 0
135 54 0
135 57 0
-135 -54 -57 0
136 54 0
136 58 0
-136 -54 -58 0
137 55 0
137 56 0
-137 -55 -56 0
138 55 0
138 57 0
-138 -55 -57 0
139 55 0
139 58 0
-139 -55 -58 0
140 56 0
140 57 0
-140 -56 -57 0
141 56 0
141 58 0
-141 -56 -58 0
142 57 0
142 58 0
-142 -57 -58 0
143 59 0
143 60 0
-143 -59 -60 0
144 59 0
144 61 0
-144 -59 -61 0
145 59 0
145 62 0
-145 -59 -62 0
146 59 0
146 63 0
-146 -59 -63 0
147 59 0
147 64 0
-147 -59 -64 0
148 60 0
148 61 0
-148 -60 -61 0
149 60 0
149 62 0
-149 -60 -62 0
150 60 0
150 63 0
-150 -60 -63 0
151 60 0
151 64 0
-151 -60 -64 0
152 61 0
152 62 0
-152 -61 -62 0
153 61 0
153 63 0
-153 -61 -63 0
154 61 0
154 64 0
-154 -61 -64 0
155 62 0
155 63 0
-155 -62 -63 0
156 62 0
156 64 0
-156 -62 -64 0
157 63 0
157 64 0
-157 -63 -64 0
158 65 0
158 66 0
-158 -65 -66 0
159 65 0
159 67 0
-159 -65 -67 0
160 65 0
160 68 0
-160 -65 -68 0
161 65 0
161 69 0
-161 -65 -69 0
162 65 0
162 70 0
-162 -65 -70 0
163 66 0
163 67 0
-163 -66 -67 0
164 66 0
164 68 0
-164 -66 -68 0
165 66 0
165 69 0
-165 -66 -69 0
166 66 0
166 70 0
-166 -66 -70 0
167 67 0
167 68 0
-167 -67 -68 0
168 67 0
168 69 0
-168 -67 -69 0
169 67 0
169 70 0
-169 -67 -70 0
170 68 0
170 69 0
-170 -68 -69 0
171 68 0
171 70 0
-171 -68 -70 0
172 69 0
172 70 0
-172 -69 -70 0
-173 92 0
-173 93 0
-173 94 0
-173 95 0
-173 96 0
-173 97 0
-173 98 0
-173 99 0
-173 100 0
-173 101 0
-173 102 0
-173 103 0
-173 104 0
-173 105 0
-173 106 0
-173 107 0
-173 108 0
-173 109 0
-173 110 0
-173 111 0
-173 112 0
-173 113 0
-173 114 0
-173 115 0
-173 116 0
-173 117 0
-173 118 0
-173 119 0
-173 120 0
-173 121 0
-173 122 0
-173 123 0
-173 124 0
-173 125 0
-173 126 0
-173 127 0
-173 128 0
-173 129 0
-173 130 0
-173 131 0
-173 132 0
-173 133 0
-173 134 0
-173 135 0
-173 136 0
-173 137 0
-173 138 0
-173 139 0
-173 140 0
-173 141 0
-173 142 0
-173 143 0
-173 144 0
-173 145 0
-173 146 0
-173 147 0
-173 148 0
-173 149 0
-173 150 0
-173 151 0
-173 152 0
-173 153 0
-173 154 0
-173 155 0
-173 156 0
-173 157 0
-173 158 0
-173 159 0
-173 160 0
-173 161 0
-173 162 0
-173 163 0
-173 164 0
-173 165 0
-173 166 0
-173 167 0
-173 168 0
-173 169 0
-173 170 0
-173 171 0
-173 172 0
173 -92 -93 -94 -95 -96 -97 -98 -99 -100 -101 -102 -103 -104 -105 -106 -107 -108 -109 -110 -111 -112 -113 -114 -115 -116 -117 -118 -119 -120 -121 -122 -123 -124 -125 -126 -127 -128 -129 -130 -131 -132 -133 -134 -135 -136 -137 -138 -139 -140 -141 -142 -143 -144 -145 -146 -147 -148 -149 -150 -151 -152 -153 -154 -155 -156 -157 -158 -159 -160 -161 -162 -163 -164 -165 -166 -167 -168 -169 -170 -171 -172 0
-173 0
